0 0 0 0 0 1 1 1 0 1 1 1 1 1 
0 50 32 70 32 55 80 44 58 62 56 79 29 43 
50 0 65 21 44 46 67 24 30 69 44 39 29 71 
32 65 0 56 41 78 45 77 76 79 65 49 19 48 
70 21 56 0 35 57 33 26 61 78 76 45 36 54 
32 44 41 35 0 25 43 29 80 68 73 45 41 42 
55 46 78 57 25 0 53 77 61 28 55 40 18 65 
80 67 45 33 43 53 0 44 61 31 63 24 28 48 
44 24 77 26 29 77 44 0 41 38 39 44 69 70 
58 30 76 61 80 61 61 41 0 39 38 72 33 62 
62 69 79 78 68 28 31 38 39 0 34 55 78 59 
56 44 65 76 73 55 63 39 38 34 0 46 75 42 
79 39 49 45 45 40 24 44 72 55 46 0 77 20 
29 29 19 36 41 18 28 69 33 78 75 77 0 71 
43 71 48 54 42 65 48 70 62 59 42 20 71 0 
2 50
1B 3B 13P 6P 5B 4B 8P 2B 9B 11P 10P 7P 12P 14P = 399